p cnf 482 1168
1 0
18 19 0
-18 -19 0
20 21 0
-20 -21 0
-17 18 0
-17 20 0
17 -18 -20 0
22 23 0
-22 -23 0
-16 17 0
-16 22 0
16 -17 -22 0
-25 17 0
25 -17 0
26 -23 0
-26 23 0
-24 25 0
-24 26 0
24 -25 -26 0
15 -16 0
15 -24 0
-15 16 24 0
29 19 0
-29 -19 0
30 -21 0
-30 21 0
-28 29 0
-28 30 0
28 -29 -30 0
31 23 0
-31 -23 0
-27 28 0
-27 31 0
27 -28 -31 0
14 -15 0
14 -27 0
-14 15 27 0
-33 28 0
33 -28 0
34 -23 0
-34 23 0
-32 33 0
-32 34 0
32 -33 -34 0
13 -14 0
13 -32 0
-13 14 32 0
37 -19 0
-37 19 0
38 21 0
-38 -21 0
-36 37 0
-36 38 0
36 -37 -38 0
39 23 0
-39 -23 0
-35 36 0
-35 39 0
35 -36 -39 0
12 -13 0
12 -35 0
-12 13 35 0
-41 36 0
41 -36 0
42 -23 0
-42 23 0
-40 41 0
-40 42 0
40 -41 -42 0
11 -12 0
11 -40 0
-11 12 40 0
50 51 0
-50 -51 0
52 53 0
-52 -53 0
-49 50 0
-49 52 0
49 -50 -52 0
54 55 0
-54 -55 0
-48 49 0
-48 54 0
48 -49 -54 0
-57 49 0
57 -49 0
58 -55 0
-58 55 0
-56 57 0
-56 58 0
56 -57 -58 0
47 -48 0
47 -56 0
-47 48 56 0
61 51 0
-61 -51 0
62 -53 0
-62 53 0
-60 61 0
-60 62 0
60 -61 -62 0
63 55 0
-63 -55 0
-59 60 0
-59 63 0
59 -60 -63 0
46 -47 0
46 -59 0
-46 47 59 0
-65 60 0
65 -60 0
66 -55 0
-66 55 0
-64 65 0
-64 66 0
64 -65 -66 0
45 -46 0
45 -64 0
-45 46 64 0
69 -51 0
-69 51 0
70 53 0
-70 -53 0
-68 69 0
-68 70 0
68 -69 -70 0
71 55 0
-71 -55 0
-67 68 0
-67 71 0
67 -68 -71 0
44 -45 0
44 -67 0
-44 45 67 0
-73 68 0
73 -68 0
74 -55 0
-74 55 0
-72 73 0
-72 74 0
72 -73 -74 0
43 -44 0
43 -72 0
-43 44 72 0
-10 11 0
-10 43 0
10 -11 -43 0
82 83 0
-82 -83 0
84 85 0
-84 -85 0
-81 82 0
-81 84 0
81 -82 -84 0
86 87 0
-86 -87 0
-80 81 0
-80 86 0
80 -81 -86 0
-89 81 0
89 -81 0
90 -87 0
-90 87 0
-88 89 0
-88 90 0
88 -89 -90 0
79 -80 0
79 -88 0
-79 80 88 0
93 83 0
-93 -83 0
94 -85 0
-94 85 0
-92 93 0
-92 94 0
92 -93 -94 0
95 87 0
-95 -87 0
-91 92 0
-91 95 0
91 -92 -95 0
78 -79 0
78 -91 0
-78 79 91 0
-97 92 0
97 -92 0
98 -87 0
-98 87 0
-96 97 0
-96 98 0
96 -97 -98 0
77 -78 0
77 -96 0
-77 78 96 0
101 -83 0
-101 83 0
102 85 0
-102 -85 0
-100 101 0
-100 102 0
100 -101 -102 0
103 87 0
-103 -87 0
-99 100 0
-99 103 0
99 -100 -103 0
76 -77 0
76 -99 0
-76 77 99 0
-105 100 0
105 -100 0
106 -87 0
-106 87 0
-104 105 0
-104 106 0
104 -105 -106 0
75 -76 0
75 -104 0
-75 76 104 0
-9 10 0
-9 75 0
9 -10 -75 0
114 115 0
-114 -115 0
116 117 0
-116 -117 0
-113 114 0
-113 116 0
113 -114 -116 0
118 119 0
-118 -119 0
-112 113 0
-112 118 0
112 -113 -118 0
-121 113 0
121 -113 0
122 -119 0
-122 119 0
-120 121 0
-120 122 0
120 -121 -122 0
111 -112 0
111 -120 0
-111 112 120 0
125 115 0
-125 -115 0
126 -117 0
-126 117 0
-124 125 0
-124 126 0
124 -125 -126 0
127 119 0
-127 -119 0
-123 124 0
-123 127 0
123 -124 -127 0
110 -111 0
110 -123 0
-110 111 123 0
-129 124 0
129 -124 0
130 -119 0
-130 119 0
-128 129 0
-128 130 0
128 -129 -130 0
109 -110 0
109 -128 0
-109 110 128 0
133 -115 0
-133 115 0
134 117 0
-134 -117 0
-132 133 0
-132 134 0
132 -133 -134 0
135 119 0
-135 -119 0
-131 132 0
-131 135 0
131 -132 -135 0
108 -109 0
108 -131 0
-108 109 131 0
-137 132 0
137 -132 0
138 -119 0
-138 119 0
-136 137 0
-136 138 0
136 -137 -138 0
107 -108 0
107 -136 0
-107 108 136 0
-8 9 0
-8 107 0
8 -9 -107 0
146 147 0
-146 -147 0
148 149 0
-148 -149 0
-145 146 0
-145 148 0
145 -146 -148 0
150 151 0
-150 -151 0
-144 145 0
-144 150 0
144 -145 -150 0
-153 145 0
153 -145 0
154 -151 0
-154 151 0
-152 153 0
-152 154 0
152 -153 -154 0
143 -144 0
143 -152 0
-143 144 152 0
157 147 0
-157 -147 0
158 -149 0
-158 149 0
-156 157 0
-156 158 0
156 -157 -158 0
159 151 0
-159 -151 0
-155 156 0
-155 159 0
155 -156 -159 0
142 -143 0
142 -155 0
-142 143 155 0
-161 156 0
161 -156 0
162 -151 0
-162 151 0
-160 161 0
-160 162 0
160 -161 -162 0
141 -142 0
141 -160 0
-141 142 160 0
165 -147 0
-165 147 0
166 149 0
-166 -149 0
-164 165 0
-164 166 0
164 -165 -166 0
167 151 0
-167 -151 0
-163 164 0
-163 167 0
163 -164 -167 0
140 -141 0
140 -163 0
-140 141 163 0
-169 164 0
169 -164 0
170 -151 0
-170 151 0
-168 169 0
-168 170 0
168 -169 -170 0
139 -140 0
139 -168 0
-139 140 168 0
-7 8 0
-7 139 0
7 -8 -139 0
-179 168 0
179 -168 0
-180 35 0
180 -35 0
-178 179 0
-178 180 0
178 -179 -180 0
-182 163 0
182 -163 0
-183 40 0
183 -40 0
-181 182 0
-181 183 0
181 -182 -183 0
177 -178 0
177 -181 0
-177 178 181 0
-185 163 0
185 -163 0
188 -19 0
-188 19 0
189 -21 0
-189 21 0
-187 188 0
-187 189 0
187 -188 -189 0
190 23 0
-190 -23 0
-186 187 0
-186 190 0
186 -187 -190 0
-184 185 0
-184 186 0
184 -185 -186 0
176 -177 0
176 -184 0
-176 177 184 0
-192 160 0
192 -160 0
-193 35 0
193 -35 0
-191 192 0
-191 193 0
191 -192 -193 0
175 -176 0
175 -191 0
-175 176 191 0
-195 155 0
195 -155 0
-196 32 0
196 -32 0
-194 195 0
-194 196 0
194 -195 -196 0
174 -175 0
174 -194 0
-174 175 194 0
200 -147 0
-200 147 0
201 -149 0
-201 149 0
-199 200 0
-199 201 0
199 -200 -201 0
202 151 0
-202 -151 0
-198 199 0
-198 202 0
198 -199 -202 0
-203 24 0
203 -24 0
-197 198 0
-197 203 0
197 -198 -203 0
173 -174 0
173 -197 0
-173 174 197 0
-205 152 0
205 -152 0
-206 27 0
206 -27 0
-204 205 0
-204 206 0
204 -205 -206 0
172 -173 0
172 -204 0
-172 173 204 0
-208 144 0
208 -144 0
-209 24 0
209 -24 0
-207 208 0
-207 209 0
207 -208 -209 0
171 -172 0
171 -207 0
-171 172 207 0
-6 7 0
-6 171 0
6 -7 -171 0
-211 7 0
211 -7 0
-220 168 0
220 -168 0
-221 67 0
221 -67 0
-219 220 0
-219 221 0
219 -220 -221 0
-223 163 0
223 -163 0
-224 72 0
224 -72 0
-222 223 0
-222 224 0
222 -223 -224 0
218 -219 0
218 -222 0
-218 219 222 0
-226 163 0
226 -163 0
229 -51 0
-229 51 0
230 -53 0
-230 53 0
-228 229 0
-228 230 0
228 -229 -230 0
231 55 0
-231 -55 0
-227 228 0
-227 231 0
227 -228 -231 0
-225 226 0
-225 227 0
225 -226 -227 0
217 -218 0
217 -225 0
-217 218 225 0
-233 160 0
233 -160 0
-234 67 0
234 -67 0
-232 233 0
-232 234 0
232 -233 -234 0
216 -217 0
216 -232 0
-216 217 232 0
-236 155 0
236 -155 0
-237 64 0
237 -64 0
-235 236 0
-235 237 0
235 -236 -237 0
215 -216 0
215 -235 0
-215 216 235 0
-239 198 0
239 -198 0
-240 56 0
240 -56 0
-238 239 0
-238 240 0
238 -239 -240 0
214 -215 0
214 -238 0
-214 215 238 0
-242 152 0
242 -152 0
-243 59 0
243 -59 0
-241 242 0
-241 243 0
241 -242 -243 0
213 -214 0
213 -241 0
-213 214 241 0
-245 144 0
245 -144 0
-246 56 0
246 -56 0
-244 245 0
-244 246 0
244 -245 -246 0
212 -213 0
212 -244 0
-212 213 244 0
-210 211 0
-210 212 0
210 -211 -212 0
5 -6 0
5 -210 0
-5 6 210 0
-248 7 0
248 -7 0
-257 168 0
257 -168 0
-258 99 0
258 -99 0
-256 257 0
-256 258 0
256 -257 -258 0
-260 163 0
260 -163 0
-261 104 0
261 -104 0
-259 260 0
-259 261 0
259 -260 -261 0
255 -256 0
255 -259 0
-255 256 259 0
-263 163 0
263 -163 0
266 -83 0
-266 83 0
267 -85 0
-267 85 0
-265 266 0
-265 267 0
265 -266 -267 0
268 87 0
-268 -87 0
-264 265 0
-264 268 0
264 -265 -268 0
-262 263 0
-262 264 0
262 -263 -264 0
254 -255 0
254 -262 0
-254 255 262 0
-270 160 0
270 -160 0
-271 99 0
271 -99 0
-269 270 0
-269 271 0
269 -270 -271 0
253 -254 0
253 -269 0
-253 254 269 0
-273 155 0
273 -155 0
-274 96 0
274 -96 0
-272 273 0
-272 274 0
272 -273 -274 0
252 -253 0
252 -272 0
-252 253 272 0
-276 198 0
276 -198 0
-277 88 0
277 -88 0
-275 276 0
-275 277 0
275 -276 -277 0
251 -252 0
251 -275 0
-251 252 275 0
-279 152 0
279 -152 0
-280 91 0
280 -91 0
-278 279 0
-278 280 0
278 -279 -280 0
250 -251 0
250 -278 0
-250 251 278 0
-282 144 0
282 -144 0
-283 88 0
283 -88 0
-281 282 0
-281 283 0
281 -282 -283 0
249 -250 0
249 -281 0
-249 250 281 0
-247 248 0
-247 249 0
247 -248 -249 0
4 -5 0
4 -247 0
-4 5 247 0
-285 7 0
285 -7 0
-294 168 0
294 -168 0
-295 131 0
295 -131 0
-293 294 0
-293 295 0
293 -294 -295 0
-297 163 0
297 -163 0
-298 136 0
298 -136 0
-296 297 0
-296 298 0
296 -297 -298 0
292 -293 0
292 -296 0
-292 293 296 0
-300 163 0
300 -163 0
303 -115 0
-303 115 0
304 -117 0
-304 117 0
-302 303 0
-302 304 0
302 -303 -304 0
305 119 0
-305 -119 0
-301 302 0
-301 305 0
301 -302 -305 0
-299 300 0
-299 301 0
299 -300 -301 0
291 -292 0
291 -299 0
-291 292 299 0
-307 160 0
307 -160 0
-308 131 0
308 -131 0
-306 307 0
-306 308 0
306 -307 -308 0
290 -291 0
290 -306 0
-290 291 306 0
-310 155 0
310 -155 0
-311 128 0
311 -128 0
-309 310 0
-309 311 0
309 -310 -311 0
289 -290 0
289 -309 0
-289 290 309 0
-313 198 0
313 -198 0
-314 120 0
314 -120 0
-312 313 0
-312 314 0
312 -313 -314 0
288 -289 0
288 -312 0
-288 289 312 0
-316 152 0
316 -152 0
-317 123 0
317 -123 0
-315 316 0
-315 317 0
315 -316 -317 0
287 -288 0
287 -315 0
-287 288 315 0
-319 144 0
319 -144 0
-320 120 0
320 -120 0
-318 319 0
-318 320 0
318 -319 -320 0
286 -287 0
286 -318 0
-286 287 318 0
-284 285 0
-284 286 0
284 -285 -286 0
3 -4 0
3 -284 0
-3 4 284 0
-322 7 0
322 -7 0
-331 168 0
331 -168 0
-332 163 0
332 -163 0
-330 331 0
-330 332 0
330 -331 -332 0
-334 163 0
334 -163 0
-335 168 0
335 -168 0
-333 334 0
-333 335 0
333 -334 -335 0
329 -330 0
329 -333 0
-329 330 333 0
-337 163 0
337 -163 0
-338 198 0
338 -198 0
-336 337 0
-336 338 0
336 -337 -338 0
328 -329 0
328 -336 0
-328 329 336 0
-340 160 0
340 -160 0
-341 163 0
341 -163 0
-339 340 0
-339 341 0
339 -340 -341 0
327 -328 0
327 -339 0
-327 328 339 0
-343 155 0
343 -155 0
-344 160 0
344 -160 0
-342 343 0
-342 344 0
342 -343 -344 0
326 -327 0
326 -342 0
-326 327 342 0
-346 198 0
346 -198 0
-347 152 0
347 -152 0
-345 346 0
-345 347 0
345 -346 -347 0
325 -326 0
325 -345 0
-325 326 345 0
-349 152 0
349 -152 0
-350 155 0
350 -155 0
-348 349 0
-348 350 0
348 -349 -350 0
324 -325 0
324 -348 0
-324 325 348 0
-352 144 0
352 -144 0
-353 152 0
353 -152 0
-351 352 0
-351 353 0
351 -352 -353 0
323 -324 0
323 -351 0
-323 324 351 0
-321 322 0
-321 323 0
321 -322 -323 0
2 -3 0
2 -321 0
-2 3 321 0
-366 40 0
366 -40 0
-367 67 0
367 -67 0
-365 366 0
-365 367 0
365 -366 -367 0
-369 35 0
369 -35 0
-370 72 0
370 -72 0
-368 369 0
-368 370 0
368 -369 -370 0
364 -365 0
364 -368 0
-364 365 368 0
-372 35 0
372 -35 0
-373 227 0
373 -227 0
-371 372 0
-371 373 0
371 -372 -373 0
363 -364 0
363 -371 0
-363 364 371 0
-375 32 0
375 -32 0
-376 67 0
376 -67 0
-374 375 0
-374 376 0
374 -375 -376 0
362 -363 0
362 -374 0
-362 363 374 0
-378 27 0
378 -27 0
-379 64 0
379 -64 0
-377 378 0
-377 379 0
377 -378 -379 0
361 -362 0
361 -377 0
-361 362 377 0
-381 186 0
381 -186 0
-382 56 0
382 -56 0
-380 381 0
-380 382 0
380 -381 -382 0
360 -361 0
360 -380 0
-360 361 380 0
-384 24 0
384 -24 0
-385 59 0
385 -59 0
-383 384 0
-383 385 0
383 -384 -385 0
359 -360 0
359 -383 0
-359 360 383 0
-387 16 0
387 -16 0
-388 56 0
388 -56 0
-386 387 0
-386 388 0
386 -387 -388 0
358 -359 0
358 -386 0
-358 359 386 0
-397 72 0
397 -72 0
-398 99 0
398 -99 0
-396 397 0
-396 398 0
396 -397 -398 0
-400 67 0
400 -67 0
-401 104 0
401 -104 0
-399 400 0
-399 401 0
399 -400 -401 0
395 -396 0
395 -399 0
-395 396 399 0
-403 67 0
403 -67 0
-404 264 0
404 -264 0
-402 403 0
-402 404 0
402 -403 -404 0
394 -395 0
394 -402 0
-394 395 402 0
-406 64 0
406 -64 0
-407 99 0
407 -99 0
-405 406 0
-405 407 0
405 -406 -407 0
393 -394 0
393 -405 0
-393 394 405 0
-409 59 0
409 -59 0
-410 96 0
410 -96 0
-408 409 0
-408 410 0
408 -409 -410 0
392 -393 0
392 -408 0
-392 393 408 0
-412 227 0
412 -227 0
-413 88 0
413 -88 0
-411 412 0
-411 413 0
411 -412 -413 0
391 -392 0
391 -411 0
-391 392 411 0
-415 56 0
415 -56 0
-416 91 0
416 -91 0
-414 415 0
-414 416 0
414 -415 -416 0
390 -391 0
390 -414 0
-390 391 414 0
-418 48 0
418 -48 0
-419 88 0
419 -88 0
-417 418 0
-417 419 0
417 -418 -419 0
389 -390 0
389 -417 0
-389 390 417 0
-357 358 0
-357 389 0
357 -358 -389 0
-428 104 0
428 -104 0
-429 131 0
429 -131 0
-427 428 0
-427 429 0
427 -428 -429 0
-431 99 0
431 -99 0
-432 136 0
432 -136 0
-430 431 0
-430 432 0
430 -431 -432 0
426 -427 0
426 -430 0
-426 427 430 0
-434 99 0
434 -99 0
-435 301 0
435 -301 0
-433 434 0
-433 435 0
433 -434 -435 0
425 -426 0
425 -433 0
-425 426 433 0
-437 96 0
437 -96 0
-438 131 0
438 -131 0
-436 437 0
-436 438 0
436 -437 -438 0
424 -425 0
424 -436 0
-424 425 436 0
-440 91 0
440 -91 0
-441 128 0
441 -128 0
-439 440 0
-439 441 0
439 -440 -441 0
423 -424 0
423 -439 0
-423 424 439 0
-443 264 0
443 -264 0
-444 120 0
444 -120 0
-442 443 0
-442 444 0
442 -443 -444 0
422 -423 0
422 -442 0
-422 423 442 0
-446 88 0
446 -88 0
-447 123 0
447 -123 0
-445 446 0
-445 447 0
445 -446 -447 0
421 -422 0
421 -445 0
-421 422 445 0
-449 80 0
449 -80 0
-450 120 0
450 -120 0
-448 449 0
-448 450 0
448 -449 -450 0
420 -421 0
420 -448 0
-420 421 448 0
-356 357 0
-356 420 0
356 -357 -420 0
-459 136 0
459 -136 0
-460 163 0
460 -163 0
-458 459 0
-458 460 0
458 -459 -460 0
-462 131 0
462 -131 0
-463 168 0
463 -168 0
-461 462 0
-461 463 0
461 -462 -463 0
457 -458 0
457 -461 0
-457 458 461 0
-465 131 0
465 -131 0
-466 198 0
466 -198 0
-464 465 0
-464 466 0
464 -465 -466 0
456 -457 0
456 -464 0
-456 457 464 0
-468 128 0
468 -128 0
-469 163 0
469 -163 0
-467 468 0
-467 469 0
467 -468 -469 0
455 -456 0
455 -467 0
-455 456 467 0
-471 123 0
471 -123 0
-472 160 0
472 -160 0
-470 471 0
-470 472 0
470 -471 -472 0
454 -455 0
454 -470 0
-454 455 470 0
-474 301 0
474 -301 0
-475 152 0
475 -152 0
-473 474 0
-473 475 0
473 -474 -475 0
453 -454 0
453 -473 0
-453 454 473 0
-477 120 0
477 -120 0
-478 155 0
478 -155 0
-476 477 0
-476 478 0
476 -477 -478 0
452 -453 0
452 -476 0
-452 453 476 0
-480 112 0
480 -112 0
-481 152 0
481 -152 0
-479 480 0
-479 481 0
479 -480 -481 0
451 -452 0
451 -479 0
-451 452 479 0
-355 356 0
-355 451 0
355 -356 -451 0
-482 16 0
482 -16 0
-354 355 0
-354 482 0
354 -355 -482 0
-1 2 0
-1 354 0
1 -2 -354 0
